72
125
100	5
99	5
98	2
97	2
96	2
94	7
93	2
92	4
91	2
90	4
89	2
87	1
86	1
85	4
84	5
83	2
82	1
81	3
80	2
79	2
78	2
76	2
75	3
74	2
73	4
72	2
71	2
70	1
69	1
68	2
67	5
66	6
65	5
64	3
63	3
62	3
61	4
60	5
59	3
58	3
57	3
56	1
55	3
54	1
53	1
52	3
51	4
50	2
49	2
48	4
47	3
46	2
45	3
44	6
43	2
42	3
41	1
40	1
39	3
38	2
37	2
36	1
35	1
34	1
33	1
32	3
30	3
29	2
28	3
27	6
26	5
25	3
